benchmark_str_length/p2_10_3-3.txt
{
	"num_strings": 10,
	"alphabet": "ACGT",
	"strings": [
		"",
		"T",
		"A",
		"TC",
		"AG",
		"",
		"GC",
		"CCA",
		"G",
		"CC"
	],
	"str_length":[0,1,1,2,2,0,2,3,1,2]
}